\ENCODING=ISO-8859-1
\Problem name: nSARP

Maximize
 obj1: - 0.426266666666667 x(0,1,0) - 1.0534 x(0,2,0)
       - 1.28033333333333 x(0,3,0) - 0.663933333333333 x(0,4,0)
       - 1.70506666666667 x(0,5,0) - 1.0442 x(0,6,0)
       - 1.71733333333333 x(0,7,0) - 2.09606666666667 x(0,8,0)
       - 0.458466666666667 x(0,9,0) - 1.96726666666667 x(0,10,0)
       - 2.28466666666667 x(0,11,0) - 0.6118 x(0,12,0) - 1.012 x(1,0,0)
       - 0.918466666666667 x(1,2,0) - 1.02426666666667 x(1,3,0)
       - 0.752866666666667 x(1,4,0) - 1.449 x(1,5,0)
       - 1.03653333333333 x(1,6,0) - 1.46126666666667 x(1,7,0)
       - 1.83846666666667 x(1,8,0) - 0.5474 x(1,9,0) - 1.7112 x(1,10,0)
       - 2.0286 x(1,11,0) - 0.700733333333333 x(1,12,0)
       - 1.15613333333333 x(2,0,0) - 1.24506666666667 x(2,1,0)
       - 1.33553333333333 x(2,3,0) - 1.48426666666667 x(2,4,0)
       - 1.44133333333333 x(2,5,0) - 1.76793333333333 x(2,6,0)
       - 1.04113333333333 x(2,7,0) - 1.83233333333333 x(2,8,0)
       - 1.2788 x(2,9,0) - 1.70506666666667 x(2,10,0)
       - 2.02093333333333 x(2,11,0) - 1.43213333333333 x(2,12,0)
       - 0.486066666666667 x(3,0,0) - 0.677733333333333 x(3,1,0)
       - 1.37233333333333 x(3,2,0) - 0.8786 x(3,4,0) - 1.4352 x(3,5,0)
       - 0.683866666666667 x(3,6,0) - 1.6468 x(3,7,0) - 1.564 x(3,8,0)
       - 0.783533333333333 x(3,9,0) - 1.66673333333333 x(3,10,0)
       - 1.8032 x(3,11,0) - 0.913866666666667 x(3,12,0)
       - 1.20673333333333 x(4,0,0) - 0.4462 x(4,1,0) - 1.1914 x(4,2,0)
       - 1.20673333333333 x(4,3,0) - 1.725 x(4,5,0)
       - 0.955266666666667 x(4,6,0) - 1.73573333333333 x(4,7,0)
       - 2.11446666666667 x(4,8,0) - 0.369533333333333 x(4,9,0)
       - 1.9872 x(4,10,0) - 2.3046 x(4,11,0) - 0.522866666666667 x(4,12,0)
       - 0.949133333333333 x(5,0,0) - 1.48273333333333 x(5,1,0)
       - 1.9872 x(5,2,0) - 0.949133333333333 x(5,3,0)
       - 1.61766666666667 x(5,4,0) - 1.55326666666667 x(5,6,0)
       - 1.99793333333333 x(5,7,0) - 1.0764 x(5,8,0) - 1.7204 x(5,9,0)
       - 1.495 x(5,10,0) - 1.42446666666667 x(5,11,0)
       - 1.78326666666667 x(5,12,0) - 0.590333333333333 x(6,0,0)
       - 0.8924 x(6,1,0) - 1.01353333333333 x(6,2,0)
       - 0.590333333333333 x(6,3,0) - 1.21746666666667 x(6,4,0)
       - 1.04726666666667 x(6,5,0) - 1.04113333333333 x(6,7,0)
       - 1.33246666666667 x(6,8,0) - 1.10093333333333 x(6,9,0)
       - 1.2052 x(6,10,0) - 1.52106666666667 x(6,11,0) - 1.1868 x(6,12,0)
       + 3.09486666666667 x(7,0,0) + 2.8618 x(7,1,0) + 3.3724 x(7,2,0)
       + 3.09486666666667 x(7,3,0) + 2.53673333333333 x(7,4,0)
       + 3.57173333333333 x(7,5,0) + 2.30366666666667 x(7,6,0)
       + 2.29746666666667 x(8,0,0) + 1.5722 x(8,1,0) + 1.586 x(8,2,0)
       + 2.29746666666667 x(8,3,0) + 1.24713333333333 x(8,4,0)
       + 3.1086 x(8,5,0) + 1.44033333333333 x(8,6,0)
       + 2.42943333333333 x(9,0,0) + 3.37396666666667 x(9,1,0)
       + 2.2025 x(9,2,0) + 2.42943333333333 x(9,3,0)
       + 2.96456666666667 x(9,4,0) + 1.85596666666667 x(9,5,0)
       + 2.73456666666667 x(9,6,0) - 1.32633333333333 x(10,0,0)
       - 1.863 x(10,1,0) - 1.7848 x(10,2,0) - 1.32633333333333 x(10,3,0)
       - 2.18806666666667 x(10,4,0) - 0.420133333333333 x(10,5,0)
       - 2.1804 x(10,6,0) - 0.7222 x(10,8,0) - 1.9918 x(10,9,0)
       - 1.64373333333333 x(11,0,0) - 2.1804 x(11,1,0) - 2.1022 x(11,2,0)
       - 1.64373333333333 x(11,3,0) - 2.50546666666667 x(11,4,0)
       - 0.69 x(11,5,0) - 2.16506666666667 x(11,6,0) - 1.2926 x(11,7,0)
       - 2.34293333333333 x(11,9,0) - 1.2696 x(12,0,0) - 0.4692 x(12,1,0)
       - 1.4076 x(12,2,0) - 1.2696 x(12,3,0) - 0.401733333333333 x(12,4,0)
       - 1.82773333333333 x(12,5,0) - 0.6256 x(12,6,0) - 2.0056 x(12,7,0)
       - 2.1482 x(12,8,0) - 1.99333333333333 x(13,0,0)
       - 1.07333333333333 x(13,1,0) - 1.33246666666667 x(13,2,0)
       - 1.99333333333333 x(13,3,0) - 1.0856 x(13,4,0)
       - 2.52846666666667 x(13,5,0) - 1.44133333333333 x(13,6,0)
       - 2.30153333333333 x(13,7,0) - 2.82133333333333 x(13,8,0)
       - 0.875533333333333 x(13,9,0) + 0 y(14) + 30.3446
Subject To
 Constraint1_0:      x(0,1,0) + x(0,2,0) + x(0,3,0) + x(0,4,0) + x(0,5,0)
                     + x(0,6,0) + x(0,7,0) + x(0,8,0) + x(0,9,0) + x(0,10,0)
                     + x(0,11,0) + x(0,12,0) + x(0,14,0)  = 1
 Constraint1_1:      x(1,0,0) + x(1,2,0) + x(1,3,0) + x(1,4,0) + x(1,5,0)
                     + x(1,6,0) + x(1,7,0) + x(1,8,0) + x(1,9,0) + x(1,10,0)
                     + x(1,11,0) + x(1,12,0) + x(1,14,0)  = 1
 Constraint1_2:      x(2,0,0) + x(2,1,0) + x(2,3,0) + x(2,4,0) + x(2,5,0)
                     + x(2,6,0) + x(2,7,0) + x(2,8,0) + x(2,9,0) + x(2,10,0)
                     + x(2,11,0) + x(2,12,0) + x(2,14,0)  = 1
 Constraint1_3:      x(3,0,0) + x(3,1,0) + x(3,2,0) + x(3,4,0) + x(3,5,0)
                     + x(3,6,0) + x(3,7,0) + x(3,8,0) + x(3,9,0) + x(3,10,0)
                     + x(3,11,0) + x(3,12,0) + x(3,14,0)  = 1
 Constraint1_4:      x(4,0,0) + x(4,1,0) + x(4,2,0) + x(4,3,0) + x(4,5,0)
                     + x(4,6,0) + x(4,7,0) + x(4,8,0) + x(4,9,0) + x(4,10,0)
                     + x(4,11,0) + x(4,12,0) + x(4,14,0)  = 1
 Constraint1_5:      x(5,0,0) + x(5,1,0) + x(5,2,0) + x(5,3,0) + x(5,4,0)
                     + x(5,6,0) + x(5,7,0) + x(5,8,0) + x(5,9,0) + x(5,10,0)
                     + x(5,11,0) + x(5,12,0) + x(5,14,0)  = 1
 Constraint1_6:      x(6,0,0) + x(6,1,0) + x(6,2,0) + x(6,3,0) + x(6,4,0)
                     + x(6,5,0) + x(6,7,0) + x(6,8,0) + x(6,9,0) + x(6,10,0)
                     + x(6,11,0) + x(6,12,0) + x(6,14,0)  = 1
 Constraint2_7:      x(7,0,0) + x(7,1,0) + x(7,2,0) + x(7,3,0) + x(7,4,0)
                     + x(7,5,0) + x(7,6,0) - y(7)  = 0
 Constraint2_8:      x(8,0,0) + x(8,1,0) + x(8,2,0) + x(8,3,0) + x(8,4,0)
                     + x(8,5,0) + x(8,6,0) - y(8)  = 0
 Constraint2_9:      x(9,0,0) + x(9,1,0) + x(9,2,0) + x(9,3,0) + x(9,4,0)
                     + x(9,5,0) + x(9,6,0) - y(9)  = 0
 Constraint3_7_0:    x(7,0,0) + x(7,1,0) + x(7,2,0) + x(7,3,0) + x(7,4,0)
                     + x(7,5,0) + x(7,6,0) - x(10,0,0) - x(10,1,0) - x(10,2,0)
                     - x(10,3,0) - x(10,4,0) - x(10,5,0) - x(10,6,0)
                     - x(10,8,0) - x(10,9,0) - x(10,14,0)  = 0
 Constraint3_8_0:    x(8,0,0) + x(8,1,0) + x(8,2,0) + x(8,3,0) + x(8,4,0)
                     + x(8,5,0) + x(8,6,0) - x(11,0,0) - x(11,1,0) - x(11,2,0)
                     - x(11,3,0) - x(11,4,0) - x(11,5,0) - x(11,6,0)
                     - x(11,7,0) - x(11,9,0) - x(11,14,0)  = 0
 Constraint3_9_0:    x(9,0,0) + x(9,1,0) + x(9,2,0) + x(9,3,0) + x(9,4,0)
                     + x(9,5,0) + x(9,6,0) - x(12,0,0) - x(12,1,0) - x(12,2,0)
                     - x(12,3,0) - x(12,4,0) - x(12,5,0) - x(12,6,0)
                     - x(12,7,0) - x(12,8,0) - x(12,14,0)  = 0
 Constraint4_0_0:    x(0,1,0) + x(0,2,0) + x(0,3,0) + x(0,4,0) + x(0,5,0)
                     + x(0,6,0) + x(0,7,0) + x(0,8,0) + x(0,9,0) + x(0,10,0)
                     + x(0,11,0) + x(0,12,0) + x(0,14,0) - x(1,0,0) - x(2,0,0)
                     - x(3,0,0) - x(4,0,0) - x(5,0,0) - x(6,0,0) - x(7,0,0)
                     - x(8,0,0) - x(9,0,0) - x(10,0,0) - x(11,0,0) - x(12,0,0)
                     - x(13,0,0)  = 0
 Constraint4_1_0:    - x(0,1,0) + x(1,0,0) + x(1,2,0) + x(1,3,0) + x(1,4,0)
                     + x(1,5,0) + x(1,6,0) + x(1,7,0) + x(1,8,0) + x(1,9,0)
                     + x(1,10,0) + x(1,11,0) + x(1,12,0) + x(1,14,0) - x(2,1,0)
                     - x(3,1,0) - x(4,1,0) - x(5,1,0) - x(6,1,0) - x(7,1,0)
                     - x(8,1,0) - x(9,1,0) - x(10,1,0) - x(11,1,0) - x(12,1,0)
                     - x(13,1,0)  = 0
 Constraint4_2_0:    - x(0,2,0) - x(1,2,0) + x(2,0,0) + x(2,1,0) + x(2,3,0)
                     + x(2,4,0) + x(2,5,0) + x(2,6,0) + x(2,7,0) + x(2,8,0)
                     + x(2,9,0) + x(2,10,0) + x(2,11,0) + x(2,12,0) + x(2,14,0)
                     - x(3,2,0) - x(4,2,0) - x(5,2,0) - x(6,2,0) - x(7,2,0)
                     - x(8,2,0) - x(9,2,0) - x(10,2,0) - x(11,2,0) - x(12,2,0)
                     - x(13,2,0)  = 0
 Constraint4_3_0:    - x(0,3,0) - x(1,3,0) - x(2,3,0) + x(3,0,0) + x(3,1,0)
                     + x(3,2,0) + x(3,4,0) + x(3,5,0) + x(3,6,0) + x(3,7,0)
                     + x(3,8,0) + x(3,9,0) + x(3,10,0) + x(3,11,0) + x(3,12,0)
                     + x(3,14,0) - x(4,3,0) - x(5,3,0) - x(6,3,0) - x(7,3,0)
                     - x(8,3,0) - x(9,3,0) - x(10,3,0) - x(11,3,0) - x(12,3,0)
                     - x(13,3,0)  = 0
 Constraint4_4_0:    - x(0,4,0) - x(1,4,0) - x(2,4,0) - x(3,4,0) + x(4,0,0)
                     + x(4,1,0) + x(4,2,0) + x(4,3,0) + x(4,5,0) + x(4,6,0)
                     + x(4,7,0) + x(4,8,0) + x(4,9,0) + x(4,10,0) + x(4,11,0)
                     + x(4,12,0) + x(4,14,0) - x(5,4,0) - x(6,4,0) - x(7,4,0)
                     - x(8,4,0) - x(9,4,0) - x(10,4,0) - x(11,4,0) - x(12,4,0)
                     - x(13,4,0)  = 0
 Constraint4_5_0:    - x(0,5,0) - x(1,5,0) - x(2,5,0) - x(3,5,0) - x(4,5,0)
                     + x(5,0,0) + x(5,1,0) + x(5,2,0) + x(5,3,0) + x(5,4,0)
                     + x(5,6,0) + x(5,7,0) + x(5,8,0) + x(5,9,0) + x(5,10,0)
                     + x(5,11,0) + x(5,12,0) + x(5,14,0) - x(6,5,0) - x(7,5,0)
                     - x(8,5,0) - x(9,5,0) - x(10,5,0) - x(11,5,0) - x(12,5,0)
                     - x(13,5,0)  = 0
 Constraint4_6_0:    - x(0,6,0) - x(1,6,0) - x(2,6,0) - x(3,6,0) - x(4,6,0)
                     - x(5,6,0) + x(6,0,0) + x(6,1,0) + x(6,2,0) + x(6,3,0)
                     + x(6,4,0) + x(6,5,0) + x(6,7,0) + x(6,8,0) + x(6,9,0)
                     + x(6,10,0) + x(6,11,0) + x(6,12,0) + x(6,14,0) - x(7,6,0)
                     - x(8,6,0) - x(9,6,0) - x(10,6,0) - x(11,6,0) - x(12,6,0)
                     - x(13,6,0)  = 0
 Constraint4_7_0:    - x(0,7,0) - x(1,7,0) - x(2,7,0) - x(3,7,0) - x(4,7,0)
                     - x(5,7,0) - x(6,7,0) + x(7,0,0) + x(7,1,0) + x(7,2,0)
                     + x(7,3,0) + x(7,4,0) + x(7,5,0) + x(7,6,0) - x(11,7,0)
                     - x(12,7,0) - x(13,7,0)  = 0
 Constraint4_8_0:    - x(0,8,0) - x(1,8,0) - x(2,8,0) - x(3,8,0) - x(4,8,0)
                     - x(5,8,0) - x(6,8,0) + x(8,0,0) + x(8,1,0) + x(8,2,0)
                     + x(8,3,0) + x(8,4,0) + x(8,5,0) + x(8,6,0) - x(10,8,0)
                     - x(12,8,0) - x(13,8,0)  = 0
 Constraint4_9_0:    - x(0,9,0) - x(1,9,0) - x(2,9,0) - x(3,9,0) - x(4,9,0)
                     - x(5,9,0) - x(6,9,0) + x(9,0,0) + x(9,1,0) + x(9,2,0)
                     + x(9,3,0) + x(9,4,0) + x(9,5,0) + x(9,6,0) - x(10,9,0)
                     - x(11,9,0) - x(13,9,0)  = 0
 Constraint4_10_0:   - x(0,10,0) - x(1,10,0) - x(2,10,0) - x(3,10,0)
                     - x(4,10,0) - x(5,10,0) - x(6,10,0) + x(10,0,0)
                     + x(10,1,0) + x(10,2,0) + x(10,3,0) + x(10,4,0)
                     + x(10,5,0) + x(10,6,0) + x(10,8,0) + x(10,9,0)
                     + x(10,14,0)  = 0
 Constraint4_11_0:   - x(0,11,0) - x(1,11,0) - x(2,11,0) - x(3,11,0)
                     - x(4,11,0) - x(5,11,0) - x(6,11,0) + x(11,0,0)
                     + x(11,1,0) + x(11,2,0) + x(11,3,0) + x(11,4,0)
                     + x(11,5,0) + x(11,6,0) + x(11,7,0) + x(11,9,0)
                     + x(11,14,0)  = 0
 Constraint4_12_0:   - x(0,12,0) - x(1,12,0) - x(2,12,0) - x(3,12,0)
                     - x(4,12,0) - x(5,12,0) - x(6,12,0) + x(12,0,0)
                     + x(12,1,0) + x(12,2,0) + x(12,3,0) + x(12,4,0)
                     + x(12,5,0) + x(12,6,0) + x(12,7,0) + x(12,8,0)
                     + x(12,14,0)  = 0
 Constraint5_0:      x(13,0,0) + x(13,1,0) + x(13,2,0) + x(13,3,0) + x(13,4,0)
                     + x(13,5,0) + x(13,6,0) + x(13,7,0) + x(13,8,0)
                     + x(13,9,0)  = 1
 Constraint6_0:      x(0,14,0) + x(1,14,0) + x(2,14,0) + x(3,14,0) + x(4,14,0)
                     + x(5,14,0) + x(6,14,0) + x(10,14,0) + x(11,14,0)
                     + x(12,14,0)  = 1
 Constraint7_0:      - 34 y(0) + b(0) <= 0
 Constraint7_1:      - 34 y(1) + b(1) <= 0
 Constraint7_2:      - 34 y(2) + b(2) <= 0
 Constraint7_3:      - 34 y(3) + b(3) <= 0
 Constraint7_4:      - 34 y(4) + b(4) <= 0
 Constraint7_5:      - 34 y(5) + b(5) <= 0
 Constraint7_6:      - 34 y(6) + b(6) <= 0
 Constraint7_7:      - 34 y(7) + b(7) <= 0
 Constraint7_8:      - 34 y(8) + b(8) <= 0
 Constraint7_9:      - 34 y(9) + b(9) <= 0
 Constraint7_10:     - 34 y(10) + b(10) <= 0
 Constraint7_11:     - 34 y(11) + b(11) <= 0
 Constraint7_12:     - 34 y(12) + b(12) <= 0
 Constraint7_13:     - 34 y(13) + b(13) <= 0
 Constraint8_7:      b(7) - b(10) <= 0
 Constraint8_8:      b(8) - b(11) <= 0
 Constraint8_9:      b(9) - b(12) <= 0
 Constraint9_0_1:    34 x(0,1,0) + b(0) - b(1) <= 33.63402417962
 Constraint9_0_2:    34 x(0,2,0) + b(0) - b(2) <= 33.5633851468048
 Constraint9_0_3:    34 x(0,3,0) + b(0) - b(3) <= 33.5378238341969
 Constraint9_0_4:    34 x(0,4,0) + b(0) - b(4) <= 33.6072538860104
 Constraint9_0_5:    34 x(0,5,0) + b(0) - b(5) <= 33.4899827288428
 Constraint9_0_6:    34 x(0,6,0) + b(0) - b(6) <= 33.5644214162349
 Constraint9_0_7:    34 x(0,7,0) + b(0) - b(7) <= 33.4886010362694
 Constraint9_0_8:    34 x(0,8,0) + b(0) - b(8) <= 33.4459412780656
 Constraint9_0_9:    34 x(0,9,0) + b(0) - b(9) <= 33.6303972366149
 Constraint9_0_10:   34 x(0,10,0) + b(0) - b(10) <= 33.4604490500864
 Constraint9_0_11:   34 x(0,11,0) + b(0) - b(11) <= 33.4246977547496
 Constraint9_0_12:   34 x(0,12,0) + b(0) - b(12) <= 33.6131260794473
 Constraint9_0_14:   34 x(0,14,0) + b(0) - b(14) <= 33.6820379965458
 Constraint9_1_0:    34 x(1,0,0) - b(0) + b(1) <= 33.6580310880829
 Constraint9_1_2:    34 x(1,2,0) + b(1) - b(2) <= 33.6685664939551
 Constraint9_1_3:    34 x(1,3,0) + b(1) - b(3) <= 33.6566493955095
 Constraint9_1_4:    34 x(1,4,0) + b(1) - b(4) <= 33.687219343696
 Constraint9_1_5:    34 x(1,5,0) + b(1) - b(5) <= 33.6088082901554
 Constraint9_1_6:    34 x(1,6,0) + b(1) - b(6) <= 33.6552677029361
 Constraint9_1_7:    34 x(1,7,0) + b(1) - b(7) <= 33.607426597582
 Constraint9_1_8:    34 x(1,8,0) + b(1) - b(8) <= 33.5649395509499
 Constraint9_1_9:    34 x(1,9,0) + b(1) - b(9) <= 33.7103626943005
 Constraint9_1_10:   34 x(1,10,0) + b(1) - b(10) <= 33.579274611399
 Constraint9_1_11:   34 x(1,11,0) + b(1) - b(11) <= 33.5435233160622
 Constraint9_1_12:   34 x(1,12,0) + b(1) - b(12) <= 33.693091537133
 Constraint9_1_14:   34 x(1,14,0) + b(1) - b(14) <= 33.7720207253886
 Constraint9_2_0:    34 x(2,0,0) - b(0) + b(2) <= 33.6583765112263
 Constraint9_2_1:    34 x(2,1,0) - b(1) + b(2) <= 33.6483592400691
 Constraint9_2_3:    34 x(2,3,0) + b(2) - b(3) <= 33.6381692573402
 Constraint9_2_4:    34 x(2,4,0) + b(2) - b(4) <= 33.6214162348877
 Constraint9_2_5:    34 x(2,5,0) + b(2) - b(5) <= 33.6262521588946
 Constraint9_2_6:    34 x(2,6,0) + b(2) - b(6) <= 33.5894645941278
 Constraint9_2_7:    34 x(2,7,0) + b(2) - b(7) <= 33.6713298791019
 Constraint9_2_8:    34 x(2,8,0) + b(2) - b(8) <= 33.5822107081174
 Constraint9_2_9:    34 x(2,9,0) + b(2) - b(9) <= 33.6445595854922
 Constraint9_2_10:   34 x(2,10,0) + b(2) - b(10) <= 33.5965457685665
 Constraint9_2_11:   34 x(2,11,0) + b(2) - b(11) <= 33.5609671848014
 Constraint9_2_12:   34 x(2,12,0) + b(2) - b(12) <= 33.6272884283247
 Constraint9_2_14:   34 x(2,14,0) + b(2) - b(14) <= 33.7886010362694
 Constraint9_3_0:    34 x(3,0,0) - b(0) + b(3) <= 33.7238341968912
 Constraint9_3_1:    34 x(3,1,0) - b(1) + b(3) <= 33.7022452504318
 Constraint9_3_2:    34 x(3,2,0) - b(2) + b(3) <= 33.6240069084629
 Constraint9_3_4:    34 x(3,4,0) + b(3) - b(4) <= 33.6796200345423
 Constraint9_3_5:    34 x(3,5,0) + b(3) - b(5) <= 33.6169257340242
 Constraint9_3_6:    34 x(3,6,0) + b(3) - b(6) <= 33.7015544041451
 Constraint9_3_7:    34 x(3,7,0) + b(3) - b(7) <= 33.593091537133
 Constraint9_3_8:    34 x(3,8,0) + b(3) - b(8) <= 33.6024179620035
 Constraint9_3_9:    34 x(3,9,0) + b(3) - b(9) <= 33.6903281519862
 Constraint9_3_10:   34 x(3,10,0) + b(3) - b(10) <= 33.5908462867012
 Constraint9_3_11:   34 x(3,11,0) + b(3) - b(11) <= 33.5754749568221
 Constraint9_3_12:   34 x(3,12,0) + b(3) - b(12) <= 33.6756476683938
 Constraint9_3_14:   34 x(3,14,0) + b(3) - b(14) <= 33.7785837651123
 Constraint9_4_0:    34 x(4,0,0) - b(0) + b(4) <= 33.5915371329879
 Constraint9_4_1:    34 x(4,1,0) - b(1) + b(4) <= 33.6772020725389
 Constraint9_4_2:    34 x(4,2,0) - b(2) + b(4) <= 33.5932642487047
 Constraint9_4_3:    34 x(4,3,0) - b(3) + b(4) <= 33.5915371329879
 Constraint9_4_5:    34 x(4,5,0) + b(4) - b(5) <= 33.5331606217617
 Constraint9_4_6:    34 x(4,6,0) + b(4) - b(6) <= 33.6198618307427
 Constraint9_4_7:    34 x(4,7,0) + b(4) - b(7) <= 33.5319516407599
 Constraint9_4_8:    34 x(4,8,0) + b(4) - b(8) <= 33.4892918825561
 Constraint9_4_9:    34 x(4,9,0) + b(4) - b(9) <= 33.6858376511226
 Constraint9_4_10:   34 x(4,10,0) + b(4) - b(10) <= 33.5036269430052
 Constraint9_4_11:   34 x(4,11,0) + b(4) - b(11) <= 33.4678756476684
 Constraint9_4_12:   34 x(4,12,0) + b(4) - b(12) <= 33.6685664939551
 Constraint9_4_14:   34 x(4,14,0) + b(4) - b(14) <= 33.7274611398964
 Constraint9_5_0:    34 x(5,0,0) - b(0) + b(5) <= 33.6029360967185
 Constraint9_5_1:    34 x(5,1,0) - b(1) + b(5) <= 33.5428324697755
 Constraint9_5_2:    34 x(5,2,0) - b(2) + b(5) <= 33.4860103626943
 Constraint9_5_3:    34 x(5,3,0) - b(3) + b(5) <= 33.6029360967185
 Constraint9_5_4:    34 x(5,4,0) - b(4) + b(5) <= 33.527633851468
 Constraint9_5_6:    34 x(5,6,0) + b(5) - b(6) <= 33.5348877374784
 Constraint9_5_7:    34 x(5,7,0) + b(5) - b(7) <= 33.4848013816926
 Constraint9_5_8:    34 x(5,8,0) + b(5) - b(8) <= 33.5886010362694
 Constraint9_5_9:    34 x(5,9,0) + b(5) - b(9) <= 33.5160621761658
 Constraint9_5_10:   34 x(5,10,0) + b(5) - b(10) <= 33.5414507772021
 Constraint9_5_11:   34 x(5,11,0) + b(5) - b(11) <= 33.5493955094991
 Constraint9_5_12:   34 x(5,12,0) + b(5) - b(12) <= 33.5089810017271
 Constraint9_5_14:   34 x(5,14,0) + b(5) - b(14) <= 33.7098445595855
 Constraint9_6_0:    34 x(6,0,0) - b(0) + b(6) <= 33.6115716753022
 Constraint9_6_1:    34 x(6,1,0) - b(1) + b(6) <= 33.5775474956822
 Constraint9_6_2:    34 x(6,2,0) - b(2) + b(6) <= 33.5639032815199
 Constraint9_6_3:    34 x(6,3,0) - b(3) + b(6) <= 33.6115716753022
 Constraint9_6_4:    34 x(6,4,0) - b(4) + b(6) <= 33.540932642487
 Constraint9_6_5:    34 x(6,5,0) - b(5) + b(6) <= 33.560103626943
 Constraint9_6_7:    34 x(6,7,0) + b(6) - b(7) <= 33.5607944732297
 Constraint9_6_8:    34 x(6,8,0) + b(6) - b(8) <= 33.5279792746114
 Constraint9_6_9:    34 x(6,9,0) + b(6) - b(9) <= 33.5540587219344
 Constraint9_6_10:   34 x(6,10,0) + b(6) - b(10) <= 33.5423143350604
 Constraint9_6_11:   34 x(6,11,0) + b(6) - b(11) <= 33.5067357512953
 Constraint9_6_12:   34 x(6,12,0) + b(6) - b(12) <= 33.5443868739206
 Constraint9_6_14:   34 x(6,14,0) + b(6) - b(14) <= 33.6780656303972
 Constraint9_7_0:    34 x(7,0,0) - b(0) + b(7) <= 33.7534542314335
 Constraint9_7_1:    34 x(7,1,0) - b(1) + b(7) <= 33.7272020725389
 Constraint9_7_2:    34 x(7,2,0) - b(2) + b(7) <= 33.7847150259067
 Constraint9_7_3:    34 x(7,3,0) - b(3) + b(7) <= 33.7534542314335
 Constraint9_7_4:    34 x(7,4,0) - b(4) + b(7) <= 33.6905872193437
 Constraint9_7_5:    34 x(7,5,0) - b(5) + b(7) <= 33.8071675302245
 Constraint9_7_6:    34 x(7,6,0) - b(6) + b(7) <= 33.664335060449
 Constraint9_8_0:    34 x(8,0,0) - b(0) + b(8) <= 33.7814335060449
 Constraint9_8_1:    34 x(8,1,0) - b(1) + b(8) <= 33.6997409326425
 Constraint9_8_2:    34 x(8,2,0) - b(2) + b(8) <= 33.7012953367876
 Constraint9_8_3:    34 x(8,3,0) - b(3) + b(8) <= 33.7814335060449
 Constraint9_8_4:    34 x(8,4,0) - b(4) + b(8) <= 33.6631260794473
 Constraint9_8_5:    34 x(8,5,0) - b(5) + b(8) <= 33.8727979274611
 Constraint9_8_6:    34 x(8,6,0) - b(6) + b(8) <= 33.6848877374784
 Constraint9_9_0:    34 x(9,0,0) - b(0) + b(9) <= 33.7772884283247
 Constraint9_9_1:    34 x(9,1,0) - b(1) + b(9) <= 33.8836787564767
 Constraint9_9_2:    34 x(9,2,0) - b(2) + b(9) <= 33.7517271157168
 Constraint9_9_3:    34 x(9,3,0) - b(3) + b(9) <= 33.7772884283247
 Constraint9_9_4:    34 x(9,4,0) - b(4) + b(9) <= 33.8375647668394
 Constraint9_9_5:    34 x(9,5,0) - b(5) + b(9) <= 33.7126943005181
 Constraint9_9_6:    34 x(9,6,0) - b(6) + b(9) <= 33.8116580310881
 Constraint9_10_0:   34 x(10,0,0) - b(0) + b(10) <= 33.7672711571675
 Constraint9_10_1:   34 x(10,1,0) - b(1) + b(10) <= 33.7068221070812
 Constraint9_10_2:   34 x(10,2,0) - b(2) + b(10) <= 33.7156303972366
 Constraint9_10_3:   34 x(10,3,0) - b(3) + b(10) <= 33.7672711571675
 Constraint9_10_4:   34 x(10,4,0) - b(4) + b(10) <= 33.670207253886
 Constraint9_10_5:   34 x(10,5,0) - b(5) + b(10) <= 33.8693436960276
 Constraint9_10_6:   34 x(10,6,0) - b(6) + b(10) <= 33.6710708117444
 Constraint9_10_8:   34 x(10,8,0) - b(8) + b(10) <= 33.8353195164076
 Constraint9_10_9:   34 x(10,9,0) - b(9) + b(10) <= 33.6923143350605
 Constraint9_10_14:  34 x(10,14,0) + b(10) - b(14) <= 33.9166666666667
 Constraint9_11_0:   34 x(11,0,0) - b(0) + b(11) <= 33.7315198618307
 Constraint9_11_1:   34 x(11,1,0) - b(1) + b(11) <= 33.6710708117444
 Constraint9_11_2:   34 x(11,2,0) - b(2) + b(11) <= 33.6798791018998
 Constraint9_11_3:   34 x(11,3,0) - b(3) + b(11) <= 33.7315198618307
 Constraint9_11_4:   34 x(11,4,0) - b(4) + b(11) <= 33.6344559585492
 Constraint9_11_5:   34 x(11,5,0) - b(5) + b(11) <= 33.8389464594128
 Constraint9_11_6:   34 x(11,6,0) - b(6) + b(11) <= 33.6727979274611
 Constraint9_11_7:   34 x(11,7,0) - b(7) + b(11) <= 33.7710708117444
 Constraint9_11_9:   34 x(11,9,0) - b(9) + b(11) <= 33.6527633851468
 Constraint9_11_14:  34 x(11,14,0) + b(11) - b(14) <= 33.9166666666667
 Constraint9_12_0:   34 x(12,0,0) - b(0) + b(12) <= 33.7736614853195
 Constraint9_12_1:   34 x(12,1,0) - b(1) + b(12) <= 33.863816925734
 Constraint9_12_2:   34 x(12,2,0) - b(2) + b(12) <= 33.7581174438687
 Constraint9_12_3:   34 x(12,3,0) - b(3) + b(12) <= 33.7736614853195
 Constraint9_12_4:   34 x(12,4,0) - b(4) + b(12) <= 33.8714162348877
 Constraint9_12_5:   34 x(12,5,0) - b(5) + b(12) <= 33.7107944732297
 Constraint9_12_6:   34 x(12,6,0) - b(6) + b(12) <= 33.8462003454231
 Constraint9_12_7:   34 x(12,7,0) - b(7) + b(12) <= 33.6907599309154
 Constraint9_12_8:   34 x(12,8,0) - b(8) + b(12) <= 33.6746977547496
 Constraint9_12_14:  34 x(12,14,0) + b(12) - b(14) <= 33.9166666666667
 Constraint9_13_0:   34 x(13,0,0) - b(0) + b(13) <= 33.7754749568221
 Constraint9_13_1:   34 x(13,1,0) - b(1) + b(13) <= 33.8791018998273
 Constraint9_13_2:   34 x(13,2,0) - b(2) + b(13) <= 33.8499136442142
 Constraint9_13_3:   34 x(13,3,0) - b(3) + b(13) <= 33.7754749568221
 Constraint9_13_4:   34 x(13,4,0) - b(4) + b(13) <= 33.8777202072539
 Constraint9_13_5:   34 x(13,5,0) - b(5) + b(13) <= 33.7151986183074
 Constraint9_13_6:   34 x(13,6,0) - b(6) + b(13) <= 33.8376511226252
 Constraint9_13_7:   34 x(13,7,0) - b(7) + b(13) <= 33.7407599309154
 Constraint9_13_8:   34 x(13,8,0) - b(8) + b(13) <= 33.6822107081174
 Constraint9_13_9:   34 x(13,9,0) - b(9) + b(13) <= 33.9013816925734
 Constraint10_0_1:   - 4 x(0,1,0) - w(0) + w(1) >= -4
 Constraint10_0_2:   - 4 x(0,2,0) - w(0) + w(2) >= -4
 Constraint10_0_3:   - 4 x(0,3,0) - w(0) + w(3) >= -4
 Constraint10_0_4:   - 4 x(0,4,0) - w(0) + w(4) >= -4
 Constraint10_0_5:   - 4 x(0,5,0) - w(0) + w(5) >= -4
 Constraint10_0_6:   - 4 x(0,6,0) - w(0) + w(6) >= -4
 Constraint10_0_7:   - 4 x(0,7,0) - w(0) + w(7) >= -3
 Constraint10_0_8:   - 4 x(0,8,0) - w(0) + w(8) >= -3
 Constraint10_0_9:   - 4 x(0,9,0) - w(0) + w(9) >= -3
 Constraint10_0_10:  - 4 x(0,10,0) - w(0) + w(10) >= -5
 Constraint10_0_11:  - 4 x(0,11,0) - w(0) + w(11) >= -5
 Constraint10_0_12:  - 4 x(0,12,0) - w(0) + w(12) >= -5
 Constraint10_0_14:  - 4 x(0,14,0) - w(0) + w(14) >= -4
 Constraint10_1_0:   - 4 x(1,0,0) + w(0) - w(1) >= -4
 Constraint10_1_2:   - 4 x(1,2,0) - w(1) + w(2) >= -4
 Constraint10_1_3:   - 4 x(1,3,0) - w(1) + w(3) >= -4
 Constraint10_1_4:   - 4 x(1,4,0) - w(1) + w(4) >= -4
 Constraint10_1_5:   - 4 x(1,5,0) - w(1) + w(5) >= -4
 Constraint10_1_6:   - 4 x(1,6,0) - w(1) + w(6) >= -4
 Constraint10_1_7:   - 4 x(1,7,0) - w(1) + w(7) >= -3
 Constraint10_1_8:   - 4 x(1,8,0) - w(1) + w(8) >= -3
 Constraint10_1_9:   - 4 x(1,9,0) - w(1) + w(9) >= -3
 Constraint10_1_10:  - 4 x(1,10,0) - w(1) + w(10) >= -5
 Constraint10_1_11:  - 4 x(1,11,0) - w(1) + w(11) >= -5
 Constraint10_1_12:  - 4 x(1,12,0) - w(1) + w(12) >= -5
 Constraint10_1_14:  - 4 x(1,14,0) - w(1) + w(14) >= -4
 Constraint10_2_0:   - 4 x(2,0,0) + w(0) - w(2) >= -4
 Constraint10_2_1:   - 4 x(2,1,0) + w(1) - w(2) >= -4
 Constraint10_2_3:   - 4 x(2,3,0) - w(2) + w(3) >= -4
 Constraint10_2_4:   - 4 x(2,4,0) - w(2) + w(4) >= -4
 Constraint10_2_5:   - 4 x(2,5,0) - w(2) + w(5) >= -4
 Constraint10_2_6:   - 4 x(2,6,0) - w(2) + w(6) >= -4
 Constraint10_2_7:   - 4 x(2,7,0) - w(2) + w(7) >= -3
 Constraint10_2_8:   - 4 x(2,8,0) - w(2) + w(8) >= -3
 Constraint10_2_9:   - 4 x(2,9,0) - w(2) + w(9) >= -3
 Constraint10_2_10:  - 4 x(2,10,0) - w(2) + w(10) >= -5
 Constraint10_2_11:  - 4 x(2,11,0) - w(2) + w(11) >= -5
 Constraint10_2_12:  - 4 x(2,12,0) - w(2) + w(12) >= -5
 Constraint10_2_14:  - 4 x(2,14,0) - w(2) + w(14) >= -4
 Constraint10_3_0:   - 4 x(3,0,0) + w(0) - w(3) >= -4
 Constraint10_3_1:   - 4 x(3,1,0) + w(1) - w(3) >= -4
 Constraint10_3_2:   - 4 x(3,2,0) + w(2) - w(3) >= -4
 Constraint10_3_4:   - 4 x(3,4,0) - w(3) + w(4) >= -4
 Constraint10_3_5:   - 4 x(3,5,0) - w(3) + w(5) >= -4
 Constraint10_3_6:   - 4 x(3,6,0) - w(3) + w(6) >= -4
 Constraint10_3_7:   - 4 x(3,7,0) - w(3) + w(7) >= -3
 Constraint10_3_8:   - 4 x(3,8,0) - w(3) + w(8) >= -3
 Constraint10_3_9:   - 4 x(3,9,0) - w(3) + w(9) >= -3
 Constraint10_3_10:  - 4 x(3,10,0) - w(3) + w(10) >= -5
 Constraint10_3_11:  - 4 x(3,11,0) - w(3) + w(11) >= -5
 Constraint10_3_12:  - 4 x(3,12,0) - w(3) + w(12) >= -5
 Constraint10_3_14:  - 4 x(3,14,0) - w(3) + w(14) >= -4
 Constraint10_4_0:   - 4 x(4,0,0) + w(0) - w(4) >= -4
 Constraint10_4_1:   - 4 x(4,1,0) + w(1) - w(4) >= -4
 Constraint10_4_2:   - 4 x(4,2,0) + w(2) - w(4) >= -4
 Constraint10_4_3:   - 4 x(4,3,0) + w(3) - w(4) >= -4
 Constraint10_4_5:   - 4 x(4,5,0) - w(4) + w(5) >= -4
 Constraint10_4_6:   - 4 x(4,6,0) - w(4) + w(6) >= -4
 Constraint10_4_7:   - 4 x(4,7,0) - w(4) + w(7) >= -3
 Constraint10_4_8:   - 4 x(4,8,0) - w(4) + w(8) >= -3
 Constraint10_4_9:   - 4 x(4,9,0) - w(4) + w(9) >= -3
 Constraint10_4_10:  - 4 x(4,10,0) - w(4) + w(10) >= -5
 Constraint10_4_11:  - 4 x(4,11,0) - w(4) + w(11) >= -5
 Constraint10_4_12:  - 4 x(4,12,0) - w(4) + w(12) >= -5
 Constraint10_4_14:  - 4 x(4,14,0) - w(4) + w(14) >= -4
 Constraint10_5_0:   - 4 x(5,0,0) + w(0) - w(5) >= -4
 Constraint10_5_1:   - 4 x(5,1,0) + w(1) - w(5) >= -4
 Constraint10_5_2:   - 4 x(5,2,0) + w(2) - w(5) >= -4
 Constraint10_5_3:   - 4 x(5,3,0) + w(3) - w(5) >= -4
 Constraint10_5_4:   - 4 x(5,4,0) + w(4) - w(5) >= -4
 Constraint10_5_6:   - 4 x(5,6,0) - w(5) + w(6) >= -4
 Constraint10_5_7:   - 4 x(5,7,0) - w(5) + w(7) >= -3
 Constraint10_5_8:   - 4 x(5,8,0) - w(5) + w(8) >= -3
 Constraint10_5_9:   - 4 x(5,9,0) - w(5) + w(9) >= -3
 Constraint10_5_10:  - 4 x(5,10,0) - w(5) + w(10) >= -5
 Constraint10_5_11:  - 4 x(5,11,0) - w(5) + w(11) >= -5
 Constraint10_5_12:  - 4 x(5,12,0) - w(5) + w(12) >= -5
 Constraint10_5_14:  - 4 x(5,14,0) - w(5) + w(14) >= -4
 Constraint10_6_0:   - 4 x(6,0,0) + w(0) - w(6) >= -4
 Constraint10_6_1:   - 4 x(6,1,0) + w(1) - w(6) >= -4
 Constraint10_6_2:   - 4 x(6,2,0) + w(2) - w(6) >= -4
 Constraint10_6_3:   - 4 x(6,3,0) + w(3) - w(6) >= -4
 Constraint10_6_4:   - 4 x(6,4,0) + w(4) - w(6) >= -4
 Constraint10_6_5:   - 4 x(6,5,0) + w(5) - w(6) >= -4
 Constraint10_6_7:   - 4 x(6,7,0) - w(6) + w(7) >= -3
 Constraint10_6_8:   - 4 x(6,8,0) - w(6) + w(8) >= -3
 Constraint10_6_9:   - 4 x(6,9,0) - w(6) + w(9) >= -3
 Constraint10_6_10:  - 4 x(6,10,0) - w(6) + w(10) >= -5
 Constraint10_6_11:  - 4 x(6,11,0) - w(6) + w(11) >= -5
 Constraint10_6_12:  - 4 x(6,12,0) - w(6) + w(12) >= -5
 Constraint10_6_14:  - 4 x(6,14,0) - w(6) + w(14) >= -4
 Constraint10_7_0:   - 4 x(7,0,0) + w(0) - w(7) >= -4
 Constraint10_7_1:   - 4 x(7,1,0) + w(1) - w(7) >= -4
 Constraint10_7_2:   - 4 x(7,2,0) + w(2) - w(7) >= -4
 Constraint10_7_3:   - 4 x(7,3,0) + w(3) - w(7) >= -4
 Constraint10_7_4:   - 4 x(7,4,0) + w(4) - w(7) >= -4
 Constraint10_7_5:   - 4 x(7,5,0) + w(5) - w(7) >= -4
 Constraint10_7_6:   - 4 x(7,6,0) + w(6) - w(7) >= -4
 Constraint10_8_0:   - 4 x(8,0,0) + w(0) - w(8) >= -4
 Constraint10_8_1:   - 4 x(8,1,0) + w(1) - w(8) >= -4
 Constraint10_8_2:   - 4 x(8,2,0) + w(2) - w(8) >= -4
 Constraint10_8_3:   - 4 x(8,3,0) + w(3) - w(8) >= -4
 Constraint10_8_4:   - 4 x(8,4,0) + w(4) - w(8) >= -4
 Constraint10_8_5:   - 4 x(8,5,0) + w(5) - w(8) >= -4
 Constraint10_8_6:   - 4 x(8,6,0) + w(6) - w(8) >= -4
 Constraint10_9_0:   - 4 x(9,0,0) + w(0) - w(9) >= -4
 Constraint10_9_1:   - 4 x(9,1,0) + w(1) - w(9) >= -4
 Constraint10_9_2:   - 4 x(9,2,0) + w(2) - w(9) >= -4
 Constraint10_9_3:   - 4 x(9,3,0) + w(3) - w(9) >= -4
 Constraint10_9_4:   - 4 x(9,4,0) + w(4) - w(9) >= -4
 Constraint10_9_5:   - 4 x(9,5,0) + w(5) - w(9) >= -4
 Constraint10_9_6:   - 4 x(9,6,0) + w(6) - w(9) >= -4
 Constraint10_10_0:  - 4 x(10,0,0) + w(0) - w(10) >= -4
 Constraint10_10_1:  - 4 x(10,1,0) + w(1) - w(10) >= -4
 Constraint10_10_2:  - 4 x(10,2,0) + w(2) - w(10) >= -4
 Constraint10_10_3:  - 4 x(10,3,0) + w(3) - w(10) >= -4
 Constraint10_10_4:  - 4 x(10,4,0) + w(4) - w(10) >= -4
 Constraint10_10_5:  - 4 x(10,5,0) + w(5) - w(10) >= -4
 Constraint10_10_6:  - 4 x(10,6,0) + w(6) - w(10) >= -4
 Constraint10_10_8:  - 4 x(10,8,0) + w(8) - w(10) >= -3
 Constraint10_10_9:  - 4 x(10,9,0) + w(9) - w(10) >= -3
 Constraint10_10_14: - 4 x(10,14,0) - w(10) + w(14) >= -4
 Constraint10_11_0:  - 4 x(11,0,0) + w(0) - w(11) >= -4
 Constraint10_11_1:  - 4 x(11,1,0) + w(1) - w(11) >= -4
 Constraint10_11_2:  - 4 x(11,2,0) + w(2) - w(11) >= -4
 Constraint10_11_3:  - 4 x(11,3,0) + w(3) - w(11) >= -4
 Constraint10_11_4:  - 4 x(11,4,0) + w(4) - w(11) >= -4
 Constraint10_11_5:  - 4 x(11,5,0) + w(5) - w(11) >= -4
 Constraint10_11_6:  - 4 x(11,6,0) + w(6) - w(11) >= -4
 Constraint10_11_7:  - 4 x(11,7,0) + w(7) - w(11) >= -3
 Constraint10_11_9:  - 4 x(11,9,0) + w(9) - w(11) >= -3
 Constraint10_11_14: - 4 x(11,14,0) - w(11) + w(14) >= -4
 Constraint10_12_0:  - 4 x(12,0,0) + w(0) - w(12) >= -4
 Constraint10_12_1:  - 4 x(12,1,0) + w(1) - w(12) >= -4
 Constraint10_12_2:  - 4 x(12,2,0) + w(2) - w(12) >= -4
 Constraint10_12_3:  - 4 x(12,3,0) + w(3) - w(12) >= -4
 Constraint10_12_4:  - 4 x(12,4,0) + w(4) - w(12) >= -4
 Constraint10_12_5:  - 4 x(12,5,0) + w(5) - w(12) >= -4
 Constraint10_12_6:  - 4 x(12,6,0) + w(6) - w(12) >= -4
 Constraint10_12_7:  - 4 x(12,7,0) + w(7) - w(12) >= -3
 Constraint10_12_8:  - 4 x(12,8,0) + w(8) - w(12) >= -3
 Constraint10_12_14: - 4 x(12,14,0) - w(12) + w(14) >= -4
 Constraint10_13_0:  - 4 x(13,0,0) + w(0) - w(13) >= -4
 Constraint10_13_1:  - 4 x(13,1,0) + w(1) - w(13) >= -4
 Constraint10_13_2:  - 4 x(13,2,0) + w(2) - w(13) >= -4
 Constraint10_13_3:  - 4 x(13,3,0) + w(3) - w(13) >= -4
 Constraint10_13_4:  - 4 x(13,4,0) + w(4) - w(13) >= -4
 Constraint10_13_5:  - 4 x(13,5,0) + w(5) - w(13) >= -4
 Constraint10_13_6:  - 4 x(13,6,0) + w(6) - w(13) >= -4
 Constraint10_13_7:  - 4 x(13,7,0) + w(7) - w(13) >= -3
 Constraint10_13_8:  - 4 x(13,8,0) + w(8) - w(13) >= -3
 Constraint10_13_9:  - 4 x(13,9,0) + w(9) - w(13) >= -3
 Constraint11_0_0:   b(0) <= 11.9
 Constraint12_0_0:   b(0) >= 11.9
 Constraint11_1_0:   b(1) <= 15.9833333333333
 Constraint12_1_0:   b(1) >= 15.9833333333333
 Constraint11_2_0:   b(2) <= 10.25
 Constraint12_2_0:   b(2) >= 10.25
 Constraint11_3_0:   b(3) <= 11.45
 Constraint12_3_0:   b(3) >= 11.45
 Constraint11_4_0:   b(4) <= 16.6666666666667
 Constraint12_4_0:   b(4) >= 16.6666666666667
 Constraint11_5_0:   b(5) <= 9.35
 Constraint12_5_0:   b(5) >= 9.35
 Constraint11_6_0:   b(6) <= 12.9166666666667
 Constraint12_6_0:   b(6) >= 12.9166666666667
 Constraint11_7_0:   b(7) <= 17
 Constraint12_7_0:   b(7) >= 0
 Constraint11_8_0:   b(8) <= 17
 Constraint12_8_0:   b(8) >= 0
 Constraint11_9_0:   b(9) <= 17
 Constraint12_9_0:   b(9) >= 0
 Constraint11_10_0:  b(10) <= 17
 Constraint12_10_0:  b(10) >= 0
 Constraint11_11_0:  b(11) <= 17
 Constraint12_11_0:  b(11) >= 0
 Constraint11_12_0:  b(12) <= 17
 Constraint12_12_0:  b(12) >= 0
 Constraint11_13_0:  b(13) <= 17
 Constraint12_13_0:  b(13) >= 9
 Constraint11_14_0:  b(14) <= 17
 Constraint12_14_0:  b(14) >= 9
 Constraint14:       w(14)  = 0
Bounds
 0 <= x(0,1,0) <= 1
 0 <= x(0,2,0) <= 1
 0 <= x(0,3,0) <= 1
 0 <= x(0,4,0) <= 1
 0 <= x(0,5,0) <= 1
 0 <= x(0,6,0) <= 1
 0 <= x(0,7,0) <= 1
 0 <= x(0,8,0) <= 1
 0 <= x(0,9,0) <= 1
 0 <= x(0,10,0) <= 1
 0 <= x(0,11,0) <= 1
 0 <= x(0,12,0) <= 1
 0 <= x(0,14,0) <= 1
 0 <= x(1,0,0) <= 1
 0 <= x(1,2,0) <= 1
 0 <= x(1,3,0) <= 1
 0 <= x(1,4,0) <= 1
 0 <= x(1,5,0) <= 1
 0 <= x(1,6,0) <= 1
 0 <= x(1,7,0) <= 1
 0 <= x(1,8,0) <= 1
 0 <= x(1,9,0) <= 1
 0 <= x(1,10,0) <= 1
 0 <= x(1,11,0) <= 1
 0 <= x(1,12,0) <= 1
 0 <= x(1,14,0) <= 1
 0 <= x(2,0,0) <= 1
 0 <= x(2,1,0) <= 1
 0 <= x(2,3,0) <= 1
 0 <= x(2,4,0) <= 1
 0 <= x(2,5,0) <= 1
 0 <= x(2,6,0) <= 1
 0 <= x(2,7,0) <= 1
 0 <= x(2,8,0) <= 1
 0 <= x(2,9,0) <= 1
 0 <= x(2,10,0) <= 1
 0 <= x(2,11,0) <= 1
 0 <= x(2,12,0) <= 1
 0 <= x(2,14,0) <= 1
 0 <= x(3,0,0) <= 1
 0 <= x(3,1,0) <= 1
 0 <= x(3,2,0) <= 1
 0 <= x(3,4,0) <= 1
 0 <= x(3,5,0) <= 1
 0 <= x(3,6,0) <= 1
 0 <= x(3,7,0) <= 1
 0 <= x(3,8,0) <= 1
 0 <= x(3,9,0) <= 1
 0 <= x(3,10,0) <= 1
 0 <= x(3,11,0) <= 1
 0 <= x(3,12,0) <= 1
 0 <= x(3,14,0) <= 1
 0 <= x(4,0,0) <= 1
 0 <= x(4,1,0) <= 1
 0 <= x(4,2,0) <= 1
 0 <= x(4,3,0) <= 1
 0 <= x(4,5,0) <= 1
 0 <= x(4,6,0) <= 1
 0 <= x(4,7,0) <= 1
 0 <= x(4,8,0) <= 1
 0 <= x(4,9,0) <= 1
 0 <= x(4,10,0) <= 1
 0 <= x(4,11,0) <= 1
 0 <= x(4,12,0) <= 1
 0 <= x(4,14,0) <= 1
 0 <= x(5,0,0) <= 1
 0 <= x(5,1,0) <= 1
 0 <= x(5,2,0) <= 1
 0 <= x(5,3,0) <= 1
 0 <= x(5,4,0) <= 1
 0 <= x(5,6,0) <= 1
 0 <= x(5,7,0) <= 1
 0 <= x(5,8,0) <= 1
 0 <= x(5,9,0) <= 1
 0 <= x(5,10,0) <= 1
 0 <= x(5,11,0) <= 1
 0 <= x(5,12,0) <= 1
 0 <= x(5,14,0) <= 1
 0 <= x(6,0,0) <= 1
 0 <= x(6,1,0) <= 1
 0 <= x(6,2,0) <= 1
 0 <= x(6,3,0) <= 1
 0 <= x(6,4,0) <= 1
 0 <= x(6,5,0) <= 1
 0 <= x(6,7,0) <= 1
 0 <= x(6,8,0) <= 1
 0 <= x(6,9,0) <= 1
 0 <= x(6,10,0) <= 1
 0 <= x(6,11,0) <= 1
 0 <= x(6,12,0) <= 1
 0 <= x(6,14,0) <= 1
 0 <= x(7,0,0) <= 1
 0 <= x(7,1,0) <= 1
 0 <= x(7,2,0) <= 1
 0 <= x(7,3,0) <= 1
 0 <= x(7,4,0) <= 1
 0 <= x(7,5,0) <= 1
 0 <= x(7,6,0) <= 1
 0 <= x(8,0,0) <= 1
 0 <= x(8,1,0) <= 1
 0 <= x(8,2,0) <= 1
 0 <= x(8,3,0) <= 1
 0 <= x(8,4,0) <= 1
 0 <= x(8,5,0) <= 1
 0 <= x(8,6,0) <= 1
 0 <= x(9,0,0) <= 1
 0 <= x(9,1,0) <= 1
 0 <= x(9,2,0) <= 1
 0 <= x(9,3,0) <= 1
 0 <= x(9,4,0) <= 1
 0 <= x(9,5,0) <= 1
 0 <= x(9,6,0) <= 1
 0 <= x(10,0,0) <= 1
 0 <= x(10,1,0) <= 1
 0 <= x(10,2,0) <= 1
 0 <= x(10,3,0) <= 1
 0 <= x(10,4,0) <= 1
 0 <= x(10,5,0) <= 1
 0 <= x(10,6,0) <= 1
 0 <= x(10,8,0) <= 1
 0 <= x(10,9,0) <= 1
 0 <= x(10,14,0) <= 1
 0 <= x(11,0,0) <= 1
 0 <= x(11,1,0) <= 1
 0 <= x(11,2,0) <= 1
 0 <= x(11,3,0) <= 1
 0 <= x(11,4,0) <= 1
 0 <= x(11,5,0) <= 1
 0 <= x(11,6,0) <= 1
 0 <= x(11,7,0) <= 1
 0 <= x(11,9,0) <= 1
 0 <= x(11,14,0) <= 1
 0 <= x(12,0,0) <= 1
 0 <= x(12,1,0) <= 1
 0 <= x(12,2,0) <= 1
 0 <= x(12,3,0) <= 1
 0 <= x(12,4,0) <= 1
 0 <= x(12,5,0) <= 1
 0 <= x(12,6,0) <= 1
 0 <= x(12,7,0) <= 1
 0 <= x(12,8,0) <= 1
 0 <= x(12,14,0) <= 1
 0 <= x(13,0,0) <= 1
 0 <= x(13,1,0) <= 1
 0 <= x(13,2,0) <= 1
 0 <= x(13,3,0) <= 1
 0 <= x(13,4,0) <= 1
 0 <= x(13,5,0) <= 1
 0 <= x(13,6,0) <= 1
 0 <= x(13,7,0) <= 1
 0 <= x(13,8,0) <= 1
 0 <= x(13,9,0) <= 1
 0 <= y(0) <= 1
 0 <= y(1) <= 1
 0 <= y(2) <= 1
 0 <= y(3) <= 1
 0 <= y(4) <= 1
 0 <= y(5) <= 1
 0 <= y(6) <= 1
 0 <= y(7) <= 1
 0 <= y(8) <= 1
 0 <= y(9) <= 1
 0 <= y(10) <= 1
 0 <= y(11) <= 1
 0 <= y(12) <= 1
 0 <= y(13) <= 1
 0 <= y(14) <= 1
 0 <= b(0) <= 17
 0 <= b(1) <= 17
 0 <= b(2) <= 17
 0 <= b(3) <= 17
 0 <= b(4) <= 17
 0 <= b(5) <= 17
 0 <= b(6) <= 17
 0 <= b(7) <= 17
 0 <= b(8) <= 17
 0 <= b(9) <= 17
 0 <= b(10) <= 17
 0 <= b(11) <= 17
 0 <= b(12) <= 17
 0 <= b(13) <= 17
 0 <= b(14) <= 17
 0 <= w(0) <= 1
 0 <= w(1) <= 1
 0 <= w(2) <= 1
 0 <= w(3) <= 1
 0 <= w(4) <= 1
 0 <= w(5) <= 1
 0 <= w(6) <= 1
 0 <= w(7) <= 1
 0 <= w(8) <= 1
 0 <= w(9) <= 1
 0 <= w(10) <= 1
 0 <= w(11) <= 1
 0 <= w(12) <= 1
 0 <= w(13) <= 1
 0 <= w(14) <= 1
Binaries
 x(0,1,0)  x(0,2,0)  x(0,3,0)  x(0,4,0)  x(0,5,0)  x(0,6,0)  x(0,7,0) 
 x(0,8,0)  x(0,9,0)  x(0,10,0)  x(0,11,0)  x(0,12,0)  x(0,14,0)  x(1,0,0) 
 x(1,2,0)  x(1,3,0)  x(1,4,0)  x(1,5,0)  x(1,6,0)  x(1,7,0)  x(1,8,0) 
 x(1,9,0)  x(1,10,0)  x(1,11,0)  x(1,12,0)  x(1,14,0)  x(2,0,0)  x(2,1,0) 
 x(2,3,0)  x(2,4,0)  x(2,5,0)  x(2,6,0)  x(2,7,0)  x(2,8,0)  x(2,9,0) 
 x(2,10,0)  x(2,11,0)  x(2,12,0)  x(2,14,0)  x(3,0,0)  x(3,1,0)  x(3,2,0) 
 x(3,4,0)  x(3,5,0)  x(3,6,0)  x(3,7,0)  x(3,8,0)  x(3,9,0)  x(3,10,0) 
 x(3,11,0)  x(3,12,0)  x(3,14,0)  x(4,0,0)  x(4,1,0)  x(4,2,0)  x(4,3,0) 
 x(4,5,0)  x(4,6,0)  x(4,7,0)  x(4,8,0)  x(4,9,0)  x(4,10,0)  x(4,11,0) 
 x(4,12,0)  x(4,14,0)  x(5,0,0)  x(5,1,0)  x(5,2,0)  x(5,3,0)  x(5,4,0) 
 x(5,6,0)  x(5,7,0)  x(5,8,0)  x(5,9,0)  x(5,10,0)  x(5,11,0)  x(5,12,0) 
 x(5,14,0)  x(6,0,0)  x(6,1,0)  x(6,2,0)  x(6,3,0)  x(6,4,0)  x(6,5,0) 
 x(6,7,0)  x(6,8,0)  x(6,9,0)  x(6,10,0)  x(6,11,0)  x(6,12,0)  x(6,14,0) 
 x(7,0,0)  x(7,1,0)  x(7,2,0)  x(7,3,0)  x(7,4,0)  x(7,5,0)  x(7,6,0) 
 x(8,0,0)  x(8,1,0)  x(8,2,0)  x(8,3,0)  x(8,4,0)  x(8,5,0)  x(8,6,0) 
 x(9,0,0)  x(9,1,0)  x(9,2,0)  x(9,3,0)  x(9,4,0)  x(9,5,0)  x(9,6,0) 
 x(10,0,0)  x(10,1,0)  x(10,2,0)  x(10,3,0)  x(10,4,0)  x(10,5,0)  x(10,6,0) 
 x(10,8,0)  x(10,9,0)  x(10,14,0)  x(11,0,0)  x(11,1,0)  x(11,2,0)  x(11,3,0) 
 x(11,4,0)  x(11,5,0)  x(11,6,0)  x(11,7,0)  x(11,9,0)  x(11,14,0)  x(12,0,0) 
 x(12,1,0)  x(12,2,0)  x(12,3,0)  x(12,4,0)  x(12,5,0)  x(12,6,0)  x(12,7,0) 
 x(12,8,0)  x(12,14,0)  x(13,0,0)  x(13,1,0)  x(13,2,0)  x(13,3,0)  x(13,4,0) 
 x(13,5,0)  x(13,6,0)  x(13,7,0)  x(13,8,0)  x(13,9,0)  y(0)  y(1)  y(2)  y(3) 
 y(4)  y(5)  y(6)  y(7)  y(8)  y(9)  y(10)  y(11)  y(12)  y(13)  y(14) 
End
